SAT
53 1 84 99 64 -58 -95 -26 41 69 80 42 -5 -19 -9 93 -62 79 -67 -90 38 -8 -70 -52 -15 91 27 72 100 49 -60 12 -97 7 -65 -43 -32 66 16 -86 22 -82 -13 78 -71 30 98 -18 10 -33 2 -74 63 -73 25 -48 -61 -88 21 -29 87 94 -54 89 6 56 -81 -96 31 -14 -35 -36 11 23 -92 39 -59 -28 75 -37 -17 68 83 -3 34 -44 -47 -45 76 -55 -4 -24 -77 -85 -50 -51 46 57 20 40 0
